This is Ipopt version 3.10.1, running with linear solver mumps.

Number of nonzeros in equality constraint Jacobian...:      177
Number of nonzeros in inequality constraint Jacobian.:        0
Number of nonzeros in Lagrangian Hessian.............:     3324

Total number of variables............................:       90
                     variables with only lower bounds:        0
                variables with lower and upper bounds:       90
                     variables with only upper bounds:        0
Total number of equality constraints.................:       59
Total number of inequality constraints...............:        0
        inequality constraints with only lower bounds:        0
   inequality constraints with lower and upper bounds:        0
        inequality constraints with only upper bounds:        0

iter    objective    inf_pr   inf_du lg(mu)  ||d||  lg(rg) alpha_du alpha_pr  ls
   0 -6.0732472e-04 1.00e-02 3.74e-04  -1.0 0.00e+00    -  0.00e+00 0.00e+00   0
   1 -5.8562165e-04 2.22e-16 1.12e-03  -1.7 1.95e-02    -  9.92e-01 1.00e+00h  1
   2 -5.3694017e-04 1.92e-10 3.12e-03  -2.5 3.77e-02    -  9.78e-01 1.00e+00f  1
   3 -5.3545814e-04 9.46e-12 4.53e-05  -3.8 4.30e-02    -  9.94e-01 1.00e+00f  1
   4 -3.1104739e-04 8.41e-12 9.08e-04  -5.7 2.50e+00    -  1.14e-01 1.11e-01h  1
   5 -8.6288995e-04 8.22e-13 1.32e-03  -5.7 4.63e-01    -  5.06e-01 9.03e-01f  1
   6 -1.1486054e-03 8.88e-16 4.29e-04  -5.7 4.74e-02  -2.0 9.30e-01 1.00e+00f  1
   7 -1.3576125e-03 1.27e-13 5.86e-04  -5.7 2.27e-02  -1.6 1.00e+00 1.00e+00f  1
   8 -1.8188446e-03 9.33e-14 1.90e-03  -5.7 1.58e-01  -2.1 1.00e+00 2.65e-01f  1
   9 -2.4858992e-03 2.22e-16 1.19e-03  -5.7 4.79e-02  -1.6 1.00e+00 1.00e+00f  1
iter    objective    inf_pr   inf_du lg(mu)  ||d||  lg(rg) alpha_du alpha_pr  ls
  10 -1.1954024e-03 2.22e-16 1.21e-02  -5.7 4.05e-01  -2.1 9.26e-02 9.28e-01h  1
  11 -1.1954029e-03 2.22e-16 1.21e-02  -5.7 2.58e-01  -1.7 3.60e-01 3.05e-05f 16
  12 -1.1954076e-03 2.22e-16 1.21e-02  -5.7 2.29e-01  -2.2 7.93e-01 2.18e-06f 15
  13 -1.5891232e-03 2.22e-16 7.76e-04  -5.7 3.61e-02  -1.7 1.00e+00 1.00e+00f  1
  14 -1.8092356e-03 2.22e-16 8.32e-04  -5.7 1.61e-02  -1.3 1.00e+00 1.00e+00F  1
  15 -2.0594641e-03 2.22e-16 1.44e-03  -5.7 8.59e-02  -1.8 1.00e+00 1.84e-01f  1
  16 -2.0512809e-03 2.22e-16 9.85e-04  -5.7 2.74e-01  -2.3 3.08e-01 1.95e-03f 10
  17 -2.6404040e-03 3.05e-13 2.90e-03  -5.7 1.41e-01  -1.8 1.00e+00 2.26e-01f  1
  18 -3.7892762e-03 2.22e-16 1.97e-03  -5.7 4.43e-02  -1.4 1.00e+00 1.00e+00f  1
  19 -3.5655712e-03 2.22e-16 1.89e-03  -5.7 3.88e-01  -1.9 1.88e-02 1.88e-02s 22
iter    objective    inf_pr   inf_du lg(mu)  ||d||  lg(rg) alpha_du alpha_pr  ls
  20 -3.8676806e-03 1.59e-13 2.87e-03  -5.7 9.27e-02  -1.5 1.00e+00 0.00e+00S 22
  21 -3.8564471e-03 1.59e-13 2.55e-03  -5.7 4.01e-01  -1.9 2.00e-02 9.77e-04f 11
  22 -3.8505914e-03 1.59e-13 5.76e-03  -5.7 2.69e+00  -1.5 3.79e-02 2.45e-04f 10
  23 -4.3203405e-03 6.19e-13 2.18e-03  -5.7 2.77e-02  -1.1 1.00e+00 5.66e-01f  1
  24 -4.9700694e-03 8.77e-13 8.73e-03  -5.7 1.76e-01  -1.6 1.00e+00 1.16e-01f  1
  25 -6.4601453e-03 8.88e-13 2.89e-03  -5.7 3.91e-02  -1.1 1.00e+00 1.00e+00f  1
  26 -4.1994565e-03 8.71e-13 2.52e-03  -5.7 3.59e+00  -1.6 2.27e-02 1.85e-02h  4
  27 -4.8747836e-03 8.68e-13 2.05e-03  -5.7 3.46e-02  -1.2 1.00e+00 6.95e-01f  1
  28 -1.1803248e-02 6.08e-13 8.98e-03  -5.7 4.08e-01  -1.7 1.00e+00 3.00e-01f  1
  29 -1.1853403e-02 6.29e-13 3.31e-02  -5.7 3.02e-01  -1.2 1.00e+00 2.15e-03f  1
iter    objective    inf_pr   inf_du lg(mu)  ||d||  lg(rg) alpha_du alpha_pr  ls
  30 -1.1950711e-02 3.32e-13 3.11e-02  -5.7 6.43e-01  -1.7 1.50e-01 4.72e-01f  1
  31 -1.4466191e-02 2.11e-12 3.09e-02  -5.7 2.37e-01  -1.3 1.00e+00 1.80e-01f  1
  32 -1.6222390e-02 4.12e-12 1.26e-02  -5.7 7.18e-02  -0.9 1.00e+00 4.01e-01f  1
  33 -1.8588949e-02 4.02e-12 7.23e-02  -5.7 1.06e+00  -1.3 5.11e-01 2.55e-02f  1
  34 -2.4103147e-02 5.82e-12 9.07e-03  -5.7 8.88e-02  -0.9 1.00e+00 7.07e-01f  1
  35 -2.6225786e-02 2.34e-12 9.94e-03  -5.7 3.48e-02  -0.5 1.00e+00 5.98e-01f  1
  36 -2.6837200e-02 2.23e-12 2.27e-02  -5.7 1.16e-01  -1.0 1.00e+00 4.69e-02f  1
  37 -2.8349632e-02 1.33e-12 9.33e-03  -5.7 2.96e-02  -0.5 1.00e+00 4.02e-01f  1
  38 -3.1274606e-02 1.11e-12 9.59e-03  -5.7 1.51e-01  -1.0 1.71e-01 1.63e-01f  1
  39 -3.6819573e-02 5.51e-14 1.24e-02  -5.7 4.91e-02  -0.6 1.00e+00 9.51e-01f  1
iter    objective    inf_pr   inf_du lg(mu)  ||d||  lg(rg) alpha_du alpha_pr  ls
  40 -3.6959256e-02 1.45e-13 1.49e-02  -5.7 3.06e-01  -1.1 2.17e-01 3.04e-03f  1
  41 -4.1532941e-02 4.09e-14 1.19e-02  -5.7 4.49e-02  -0.6 1.00e+00 7.18e-01f  1
  42 -4.7779313e-02 3.36e-14 1.22e-02  -5.7 3.11e-01  -1.1 2.51e-01 1.77e-01f  1
  43 -4.9525787e-02 5.60e-12 9.00e-03  -5.7 4.26e-02  -0.7 4.66e-01 3.35e-01f  1
  44 -5.0718999e-02 5.41e-12 5.36e-02  -5.7 2.55e-01  -1.2 5.92e-01 3.32e-02f  1
  45 -6.0207081e-02 2.22e-16 1.89e-02  -5.7 5.60e-02  -0.7 3.08e-01 1.00e+00f  1
  46 -6.3209960e-02 2.22e-16 1.16e-02  -5.7 2.33e-02  -0.3 1.00e+00 6.57e-01f  1
  47 -7.3160776e-02 8.68e-12 2.72e-02  -5.7 9.76e-02  -0.8 1.00e+00 4.54e-01f  1
  48 -7.4181275e-02 7.72e-12 2.33e-02  -5.7 3.60e-02  -0.4 1.00e+00 1.11e-01f  1
  49 -7.6790057e-02 9.62e-12 5.62e-02  -5.7 1.53e-01  -0.8 6.34e-01 8.07e-02f  1
iter    objective    inf_pr   inf_du lg(mu)  ||d||  lg(rg) alpha_du alpha_pr  ls
  50 -8.3840630e-02 1.74e-12 1.77e-02  -5.7 4.58e-02  -0.4 1.00e+00 8.19e-01f  1
  51 -9.8330726e-02 1.58e-11 1.82e-02  -5.7 1.47e-01  -0.9 5.39e-01 4.22e-01f  1
  52 -1.0853569e-01 1.49e-11 1.81e-02  -5.7 5.59e-02  -0.5 1.00e+00 6.10e-01f  1
  53 -1.3552861e-01 2.91e-11 2.99e-02  -5.7 1.60e+00  -0.9 1.82e-02 4.92e-02f  1
  54 -1.4859798e-01 2.11e-11 1.37e-01  -5.7 1.27e-01  -0.5 1.00e+00 2.75e-01f  1
  55 -1.3784501e-01 2.05e-11 1.48e-01  -5.7 9.95e-01  -1.0 5.94e-03 2.95e-02h  1
  56 -1.3857331e-01 2.09e-11 1.46e-01  -5.7 1.53e-01  -0.6 4.63e-03 1.17e-02f  2
  57 -1.4486190e-01 2.02e-11 3.33e-02  -5.7 4.20e-02  -0.1 1.00e+00 3.53e-01f  1
  58 -1.5064270e-01 2.37e-11 4.89e-02  -5.7 2.09e-01  -0.6 1.61e-01 6.09e-02f  1
  59 -1.5138332e-01 2.36e-11 6.23e-02  -5.7 2.20e+00    -  3.40e-02 4.45e-03f  1
iter    objective    inf_pr   inf_du lg(mu)  ||d||  lg(rg) alpha_du alpha_pr  ls
  60 -1.5148464e-01 2.35e-11 6.21e-02  -5.7 1.09e+00    -  7.57e-04 1.40e-03f  1
  61 -1.5537949e-01 2.31e-11 7.33e-02  -5.7 7.34e-01  -1.1 3.68e-02 1.99e-02f  1
  62 -1.6230124e-01 2.41e-11 1.14e-01  -5.7 1.07e-01  -0.7 9.00e-01 2.12e-01f  1
  63 -1.6743755e-01 1.99e-11 8.71e-02  -5.7 7.64e-01    -  2.49e-01 1.75e-01f  1
  64 -1.6743060e-01 1.98e-11 9.13e-02  -5.7 4.62e-01    -  4.44e-01 8.32e-04f  9
  65 -1.7000933e-01 2.16e-11 9.68e-02  -5.7 1.27e+00  -1.1 6.34e-02 8.15e-03f  1
  66 -1.7964594e-01 1.36e-11 7.77e-02  -5.7 8.61e-02  -0.7 1.00e+00 3.72e-01f  1
  67 -1.7963884e-01 1.36e-11 1.30e-01  -5.7 4.45e-01    -  5.77e-01 2.36e-04f 11
  68 -1.8738393e-01 1.31e-11 1.59e-02  -5.7 3.02e-02  -0.3 9.44e-01 7.35e-01f  1
  69 -1.8939623e-01 9.53e-12 6.24e-02  -5.7 1.41e-01  -0.8 1.80e-01 4.33e-02f  1
iter    objective    inf_pr   inf_du lg(mu)  ||d||  lg(rg) alpha_du alpha_pr  ls
  70 -1.8939331e-01 9.53e-12 7.65e-02  -5.7 4.37e-01    -  5.66e-01 6.14e-05f 13
  71 -1.9897789e-01 2.98e-12 1.71e-02  -5.7 3.83e-02  -0.3 8.82e-01 6.87e-01f  1
  72 -1.9897405e-01 2.98e-12 8.72e-02  -5.7 4.36e-01    -  5.53e-01 6.00e-05f 13
  73 -1.9897301e-01 2.98e-12 1.14e-01  -5.7 4.24e-01    -  2.15e-01 1.59e-05f 14
  74 -1.9897123e-01 7.02e-12 1.08e-01  -5.7 9.50e-01  -0.8 6.83e-05 1.70e-05f  2
  75 -2.0941782e-01 3.24e-12 4.54e-02  -5.7 5.01e-02  -0.4 7.35e-01 5.38e-01f  1
  76 -2.0941295e-01 3.24e-12 1.34e-01  -5.7 4.39e-01    -  5.48e-01 5.94e-05f 13
  77 -1.8909339e-01 2.34e-12 1.18e-01  -5.7 4.20e-01    -  5.11e-01 2.79e-01h  1
  78 -1.8990405e-01 2.15e-12 1.12e-01  -5.7 1.82e-01  -0.9 1.51e-01 1.49e-02f  2
  79 -1.8994124e-01 2.15e-12 1.09e-01  -5.7 4.47e-02  -0.5 7.34e-02 2.76e-03f  7
iter    objective    inf_pr   inf_du lg(mu)  ||d||  lg(rg) alpha_du alpha_pr  ls
  80 -1.8998810e-01 2.16e-12 8.35e-02  -5.7 2.30e-01  -0.9 3.16e-01 6.85e-04f  8
  81 -1.8999810e-01 2.16e-12 7.81e-02  -5.7 5.14e-02  -0.5 1.28e-01 6.44e-04f 11
  82 -1.7917492e-01 1.77e-12 8.18e-02  -5.7 2.28e-01    -  5.99e-01 1.82e-01h  1
  83 -1.7916935e-01 1.77e-12 8.87e-02  -5.7 1.82e-01    -  4.37e-01 1.22e-04f 14
  84 -1.7940709e-01 1.99e-12 7.18e-02  -5.7 2.29e-01  -1.0 2.10e-01 4.11e-03f  6
  85 -1.7940258e-01 1.99e-12 7.64e-02  -5.7 1.93e-01    -  6.55e-03 9.40e-05f  7
  86 -1.5504746e-01 2.22e-16 6.92e-02  -5.7 1.83e-01    -  5.10e-01 1.00e+00h  1
  87 -1.5555214e-01 2.22e-16 2.65e-03  -5.7 9.18e-03  -0.6 1.00e+00 1.00e+00f  1
  88 -1.5597483e-01 6.66e-16 9.02e-04  -5.7 2.39e-02    -  1.00e+00 1.00e+00f  1
  89 -1.5597399e-01 4.44e-16 7.58e-05  -5.7 8.09e-04  -1.0 1.00e+00 1.00e+00f  1
iter    objective    inf_pr   inf_du lg(mu)  ||d||  lg(rg) alpha_du alpha_pr  ls
  90 -1.5597444e-01 5.42e-14 8.42e-05  -5.7 3.38e-04  -0.6 1.00e+00 1.00e+00f  1
  91 -1.5598797e-01 5.55e-16 3.02e-04  -5.7 3.39e-03  -1.1 1.00e+00 1.00e+00f  1
  92 -1.5598917e-01 4.44e-16 3.52e-04  -5.7 9.29e-03  -1.6 1.00e+00 1.00e+00h  1
  93 -1.5597825e-01 4.44e-16 1.23e-03  -5.7 4.35e-03    -  1.00e+00 5.00e-01h  2
  94 -1.5605265e-01 1.36e-12 6.81e-04  -5.7 8.22e-03  -1.1 1.00e+00 1.00e+00f  1
  95 -1.5612915e-01 7.29e-13 8.74e-04  -5.7 4.34e-03  -0.7 1.00e+00 1.00e+00f  1
  96 -1.5597489e-01 2.22e-16 3.90e-04  -5.7 1.47e-02    -  1.00e+00 1.00e+00h  1
  97 -1.5597429e-01 3.33e-16 1.83e-04  -5.7 2.03e-04    -  1.00e+00 5.00e-01h  2
  98 -1.5597367e-01 2.22e-16 1.44e-08  -5.7 1.01e-04    -  1.00e+00 1.00e+00h  1
  99 -1.5608700e-01 6.66e-16 1.50e-06  -8.6 5.31e-04    -  1.00e+00 9.97e-01f  1
iter    objective    inf_pr   inf_du lg(mu)  ||d||  lg(rg) alpha_du alpha_pr  ls
 100 -1.5608770e-01 8.88e-16 6.19e-11  -8.6 7.26e-06    -  1.00e+00 1.00e+00f  1

Number of Iterations....: 100

                                   (scaled)                 (unscaled)
Objective...............:  -1.5608770171528252e-01   -1.5608770171528252e-01
Dual infeasibility......:   6.1860962774856947e-11    6.1860962774856947e-11
Constraint violation....:   8.8817841970012523e-16    8.8817841970012523e-16
Complementarity.........:   2.5593215535272337e-09    2.5593215535272337e-09
Overall NLP error.......:   2.5593215535272337e-09    2.5593215535272337e-09


Number of objective function evaluations             = 322
Number of objective gradient evaluations             = 101
Number of equality constraint evaluations            = 322
Number of inequality constraint evaluations          = 0
Number of equality constraint Jacobian evaluations   = 1
Number of inequality constraint Jacobian evaluations = 0
Number of Lagrangian Hessian evaluations             = 100
Total CPU secs in IPOPT (w/o function evaluations)   =      0.300
Total CPU secs in NLP function evaluations           =      3.820

EXIT: Optimal Solution Found.
